tps_eleves/tps_eleves/linear_prog/question9/question9.lp-pulp.mps
*SENSE:Minimize
NAME          MODEL
ROWS
 N  OBJ
 E  C0000000
 E  C0000001
 E  C0000002
 E  C0000003
 E  C0000004
 E  C0000005
 E  C0000006
 E  C0000007
 E  C0000008
 E  C0000009
 E  C0000010
 E  C0000011
COLUMNS
    X0000000  C0000000   1.000000000000e+00
    X0000000  C0000002   1.000000000000e+00
    X0000001  C0000002   1.000000000000e+00
    X0000001  OBJ        2.000000000000e+01
    X0000002  C0000002   1.000000000000e+00
    X0000002  OBJ        4.400000000000e+01
    X0000003  C0000002   1.000000000000e+00
    X0000003  OBJ        1.000000000000e+02
    X0000004  C0000003   1.000000000000e+00
    X0000004  C0000005   1.000000000000e+00
    X0000005  C0000005   1.000000000000e+00
    X0000005  OBJ        2.000000000000e+01
    X0000006  C0000005   1.000000000000e+00
    X0000006  OBJ        4.400000000000e+01
    X0000007  C0000005   1.000000000000e+00
    X0000007  OBJ        1.000000000000e+02
    X0000008  C0000006   1.000000000000e+00
    X0000008  C0000008   1.000000000000e+00
    X0000009  C0000008   1.000000000000e+00
    X0000009  OBJ        2.000000000000e+01
    X0000010  C0000008   1.000000000000e+00
    X0000010  OBJ        4.400000000000e+01
    X0000011  C0000008   1.000000000000e+00
    X0000011  OBJ        1.000000000000e+02
    X0000012  C0000009   1.000000000000e+00
    X0000012  C0000011   1.000000000000e+00
    X0000013  C0000011   1.000000000000e+00
    X0000013  OBJ        2.000000000000e+01
    X0000014  C0000011   1.000000000000e+00
    X0000014  OBJ        4.400000000000e+01
    X0000015  C0000011   1.000000000000e+00
    X0000015  OBJ        1.000000000000e+02
    X0000016  C0000000  -1.000000000000e+00
    X0000016  C0000001   4.800000000000e+03
    X0000017  C0000003  -1.000000000000e+00
    X0000017  C0000004   4.800000000000e+03
    X0000018  C0000006  -1.000000000000e+00
    X0000018  C0000007   4.800000000000e+03
    X0000019  C0000009  -1.000000000000e+00
    X0000019  C0000010   4.800000000000e+03
    X0000020  C0000000  -1.000000000000e+00
    X0000020  C0000001   7.200000000000e+03
    X0000021  C0000003  -1.000000000000e+00
    X0000021  C0000004   7.200000000000e+03
    X0000022  C0000006  -1.000000000000e+00
    X0000022  C0000007   7.200000000000e+03
    X0000023  C0000009  -1.000000000000e+00
    X0000023  C0000010   7.200000000000e+03
    X0000024  C0000001   1.000000000000e+00
    X0000024  C0000004  -1.000000000000e+00
    X0000025  C0000004   1.000000000000e+00
    X0000025  C0000007  -1.000000000000e+00
    X0000026  C0000007   1.000000000000e+00
    X0000026  C0000010  -1.000000000000e+00
    X0000027  C0000010   1.000000000000e+00
RHS
    RHS       C0000000   0.000000000000e+00
    RHS       C0000001   1.440000000000e+06
    RHS       C0000002   9.400000000000e+02
    RHS       C0000003   0.000000000000e+00
    RHS       C0000004   0.000000000000e+00
    RHS       C0000005   1.450000000000e+03
    RHS       C0000006   0.000000000000e+00
    RHS       C0000007   0.000000000000e+00
    RHS       C0000008  -7.500000000000e+01
    RHS       C0000009   0.000000000000e+00
    RHS       C0000010   0.000000000000e+00
    RHS       C0000011   7.400000000000e+02
BOUNDS
 FR BND       X0000000
 UP BND       X0000001   1.000000000000e+03
 UP BND       X0000002   5.500000000000e+02
 UP BND       X0000003   2.000000000000e+02
 FR BND       X0000004
 UP BND       X0000005   1.000000000000e+03
 UP BND       X0000006   5.500000000000e+02
 UP BND       X0000007   2.000000000000e+02
 FR BND       X0000008
 FX BND       X0000009   0.000000000000e+00
 UP BND       X0000010   5.500000000000e+02
 UP BND       X0000011   2.000000000000e+02
 FR BND       X0000012
 UP BND       X0000013   1.000000000000e+03
 UP BND       X0000014   5.500000000000e+02
 UP BND       X0000015   2.000000000000e+02
 LO BND       X0000016  -7.500000000000e+01
 UP BND       X0000016   0.000000000000e+00
 LO BND       X0000017  -7.500000000000e+01
 UP BND       X0000017   0.000000000000e+00
 LO BND       X0000018  -7.500000000000e+01
 UP BND       X0000018   0.000000000000e+00
 LO BND       X0000019  -7.500000000000e+01
 UP BND       X0000019   0.000000000000e+00
 UP BND       X0000020   7.500000000000e+01
 UP BND       X0000021   7.500000000000e+01
 UP BND       X0000022   7.500000000000e+01
 UP BND       X0000023   7.500000000000e+01
 UP BND       X0000024   1.440000000000e+06
 UP BND       X0000025   1.440000000000e+06
 UP BND       X0000026   1.440000000000e+06
 UP BND       X0000027   1.440000000000e+06
ENDATA
