tps_eleves/tps_eleves/linear_prog/question9/question9.lp-pulp.sol
Optimal - objective value 67100.00000000
      0 C0000000               0                     -20
      1 C0000001         1440000                       0
      2 C0000002             940                      20
      3 C0000003               0                     -44
      4 C0000004               0                       0
      5 C0000005            1450                      44
      6 C0000006               0                       0
      7 C0000007               0                       0
      8 C0000008             -75                       0
      9 C0000009               0                     -20
     10 C0000010               0                       0
     11 C0000011             740                      20
      0 X0000000              75                       0
      1 X0000001             865                       0
      2 X0000002               0                      24
      3 X0000003               0                      80
      4 X0000004              75                       0
      5 X0000005            1000                     -24
      6 X0000006             375                       0
      7 X0000007               0                      56
      8 X0000008             -75                       0
      9 X0000009               0                      20
     10 X0000010               0                      44
     11 X0000011               0                     100
     12 X0000012              75                       0
     13 X0000013             665                       0
     14 X0000014               0                      24
     15 X0000015               0                      80
     16 X0000016               0                     -20
     17 X0000017               0                     -44
     18 X0000018             -75                       0
     19 X0000019               0                     -20
     20 X0000020              75                     -20
     21 X0000021              75                     -44
     22 X0000022               0                       0
     23 X0000023              75                     -20
     24 X0000024          900000                       0
     25 X0000025          360000                       0
     26 X0000026          720000                       0
     27 X0000027          180000                       0
